NAME: archivos2
TYPE: TSP
COMMENT: 2-Staedte in archivos2 (Zaw Win)
DIMENSION: 2
EDGE_WEIGHT_TYPE: GEO
EDGE_WEIGHT_FORMAT: FUNCTION
DISPLAY_DATA_TYPE: COORD_DISPLAY
NODE_COORD_SECTION
1 340.74 89.42
2 124.83 133.72
EOF